
List of user-set options:

                                    Name   Value                used
                        file_print_level = 5                     yes
                   hessian_approximation = limited-memory        yes
                                  hsllib = /home/ggs24/packages/ThirdParty-HSL/.libs/libcoinhsl.so  yes
                           linear_solver = ma97                  yes
                                max_iter = 1000                  yes
                             output_file = IPOPT.out             yes
                             print_level = 5                     yes
                      print_user_options = yes                   yes
                                      sb = yes                   yes
This is Ipopt version 3.14.7, running with linear solver ma97.

Number of nonzeros in equality constraint Jacobian...:        0
Number of nonzeros in inequality constraint Jacobian.:        6
Number of nonzeros in Lagrangian Hessian.............:        0

Total number of variables............................:        6
                     variables with only lower bounds:        0
                variables with lower and upper bounds:        6
                     variables with only upper bounds:        0
Total number of equality constraints.................:        0
Total number of inequality constraints...............:        1
        inequality constraints with only lower bounds:        0
   inequality constraints with lower and upper bounds:        0
        inequality constraints with only upper bounds:        0

iter    objective    inf_pr   inf_du lg(mu)  ||d||  lg(rg) alpha_du alpha_pr  ls
   0  6.8489751e-01 0.00e+00 1.02e+00   0.0 0.00e+00    -  0.00e+00 0.00e+00   0
   1  1.1621443e-25 0.00e+00 3.67e-01  -5.7 5.69e-01    -  8.07e-01 1.00e+00f  1
   2  1.1621551e-25 0.00e+00 3.67e-03  -6.4 3.67e-08    -  9.90e-01 1.00e+00f  1
   3  1.7636857e-09 0.00e+00 1.74e-07  -2.5 2.99e-01    -  1.00e+00 5.00e-01f  2
   4  4.2170911e-07 0.00e+00 4.13e-05  -3.8 2.81e-02    -  1.00e+00 1.00e+00f  1
   5  2.1708297e-09 0.00e+00 1.58e-06  -5.6 2.66e-02    -  1.00e+00 1.00e+00f  1
   6  2.1123630e-09 0.00e+00 2.07e-07  -8.5 1.27e-04    -  1.00e+00 1.00e+00f  1
   7  7.8982086e-10 0.00e+00 7.72e-08  -8.5 1.07e-02    -  1.00e+00 1.00e+00f  1
   8  4.7943493e-10 0.00e+00 4.72e-08  -8.5 8.91e-02    -  1.00e+00 1.00e+00f  1
   9  1.2384241e-10 0.00e+00 1.16e-08  -8.5 7.04e-02    -  1.00e+00 1.00e+00f  1
iter    objective    inf_pr   inf_du lg(mu)  ||d||  lg(rg) alpha_du alpha_pr  ls
  10  8.6028113e-11 0.00e+00 8.58e-09  -9.0 2.74e-02    -  1.00e+00 1.00e+00f  1

Number of Iterations....: 10

                                   (scaled)                 (unscaled)
Objective...............:   8.6028112579080294e-11    8.6028112579080294e-11
Dual infeasibility......:   8.5761468780143953e-09    8.5761468780143953e-09
Constraint violation....:   0.0000000000000000e+00    0.0000000000000000e+00
Variable bound violation:   0.0000000000000000e+00    0.0000000000000000e+00
Complementarity.........:   9.7125359625380658e-10    9.7125359625380658e-10
Overall NLP error.......:   8.5761468780143953e-09    8.5761468780143953e-09


Number of objective function evaluations             = 16
Number of objective gradient evaluations             = 11
Number of equality constraint evaluations            = 0
Number of inequality constraint evaluations          = 16
Number of equality constraint Jacobian evaluations   = 0
Number of inequality constraint Jacobian evaluations = 11
Number of Lagrangian Hessian evaluations             = 0
Total seconds in IPOPT                               = 0.010

EXIT: Optimal Solution Found.
